<instance format="XCSP3" type="COP">
  <variables>
    <array id="fe" note="Variables pour les fréquences d'émission et de réception pour chaque station" size="[50]">
      <domain for="fe[0] fe[20..22] fe[40]"> 14 28 42 56 70 84 98 112 126 140 154 168 182 196 210 224 238 252 266 280 294 308 322 336 350 364 378 392 406 420 434 448 462 476 490 504 518 532 546 560 574 588 602 616 630 644 658 672 686 700 714 728 </domain>
      <domain for="fe[1]"> 28 42 56 70 84 112 126 140 154 168 182 196 210 224 238 252 266 280 294 308 336 350 364 378 392 406 420 434 462 476 490 504 518 546 560 574 616 630 658 714 728 </domain>
      <domain for="fe[2]"> 14 42 56 70 98 112 126 140 154 182 196 210 224 238 266 280 294 308 322 336 350 364 378 392 406 420 434 448 462 476 490 504 532 546 560 588 602 616 630 644 658 672 686 700 714 728 </domain>
      <domain for="fe[3]"> 14 28 42 56 70 98 112 126 140 154 168 182 196 210 224 238 252 266 280 294 308 322 336 350 364 378 392 406 420 434 448 476 490 504 518 532 560 574 588 602 616 630 644 658 672 686 700 714 728 </domain>
      <domain for="fe[4]"> 14 28 42 70 84 98 112 140 154 168 196 210 224 266 280 294 308 322 336 364 378 392 420 434 448 462 476 490 504 518 532 546 560 574 588 602 630 644 658 686 700 714 728 </domain>
      <domain for="fe[5]"> 14 28 56 70 84 98 112 126 154 168 182 196 210 224 238 252 266 308 322 336 350 364 378 392 406 434 448 476 490 504 518 532 546 560 574 616 630 644 658 672 700 714 728 </domain>
      <domain for="fe[6]"> 14 28 56 70 84 98 112 126 140 154 168 182 196 210 224 238 252 266 280 294 322 336 350 364 378 392 406 420 434 448 462 490 504 518 546 560 574 588 602 616 644 658 672 686 700 714 728 </domain>
      <domain for="fe[7]"> 14 28 42 56 70 84 98 112 154 168 196 210 224 238 252 294 308 336 350 364 378 392 406 420 448 462 476 490 518 532 546 560 574 588 616 630 644 658 672 686 700 714 728 </domain>
      <domain for="fe[8]"> 14 28 42 56 70 84 98 112 126 140 168 182 196 210 224 238 252 266 294 308 322 336 350 364 378 392 406 420 434 448 462 476 490 518 532 546 574 588 602 616 630 644 658 672 686 700 714 728 </domain>
      <domain for="fe[9]"> 14 28 42 56 84 98 112 154 168 182 196 210 224 238 252 266 280 294 308 322 336 350 364 378 392 406 420 434 448 462 476 490 504 532 546 560 574 588 602 630 644 658 672 700 714 728 </domain>
      <domain for="fe[10]"> 42 56 70 84 98 112 140 154 168 210 224 238 252 266 280 308 322 350 364 378 392 406 420 434 448 462 476 490 504 518 560 574 602 616 630 658 672 686 700 714 728 </domain>
      <domain for="fe[11]"> 28 42 56 70 84 98 126 140 154 168 182 196 210 238 252 294 308 350 364 378 392 406 434 462 476 490 504 518 532 546 560 574 588 602 616 630 644 658 672 686 700 714 728 </domain>
      <domain for="fe[12]"> 14 28 42 56 70 98 112 140 154 168 196 210 238 266 294 308 322 350 378 392 406 420 434 448 462 476 490 504 518 532 546 560 574 602 616 630 658 672 714 728 </domain>
      <domain for="fe[13]"> 14 28 42 56 70 84 98 112 126 140 154 196 210 224 238 266 280 294 308 322 336 350 364 378 406 420 434 448 476 490 504 518 532 546 560 574 588 602 644 658 686 714 728 </domain>
      <domain for="fe[14]"> 14 28 42 56 70 84 98 112 126 140 154 168 182 210 224 238 252 266 280 294 322 336 350 364 378 392 406 420 434 448 462 476 504 518 532 546 560 574 588 602 616 630 644 658 672 686 700 714 728 </domain>
      <domain for="fe[15]"> 14 28 42 56 70 84 98 112 126 140 154 168 182 196 210 224 238 280 294 308 322 350 378 392 406 434 448 476 490 518 532 574 588 602 616 630 644 658 672 700 714 </domain>
      <domain for="fe[16]"> 14 28 42 70 84 98 154 168 182 196 210 224 252 266 280 294 308 322 336 350 364 378 392 406 420 434 448 462 476 504 518 532 546 560 574 602 616 630 644 658 672 686 700 714 728 </domain>
      <domain for="fe[17]"> 14 28 42 56 70 84 98 112 126 140 154 168 182 196 210 224 238 252 266 294 308 322 336 350 364 378 392 406 420 434 462 476 490 504 518 532 546 560 574 588 602 616 630 644 658 672 686 700 714 728 </domain>
      <domain for="fe[18]"> 14 28 42 56 70 84 98 126 140 168 196 210 224 252 266 280 294 308 322 336 350 364 378 406 420 434 448 462 490 504 518 532 546 560 574 602 616 644 672 700 728 </domain>
      <domain for="fe[19] fe[34]"> 14 28 42 56 70 84 98 112 126 140 154 168 182 196 210 224 238 252 266 280 294 322 336 350 364 378 392 406 420 434 448 462 476 490 504 518 532 546 560 574 588 602 616 630 644 658 672 686 700 714 728 </domain>
      <domain for="fe[23]"> 14 42 56 70 84 98 112 126 140 154 182 196 210 224 238 252 266 294 308 336 350 364 378 392 406 448 476 504 518 532 560 588 602 616 630 644 658 672 686 700 714 728 </domain>
      <domain for="fe[24]"> 14 28 42 56 70 84 98 112 126 154 168 210 224 238 266 294 308 322 336 350 364 378 406 420 434 448 462 504 518 532 546 560 574 588 616 644 658 672 700 714 728 </domain>
      <domain for="fe[25]"> 14 28 42 70 84 98 112 126 140 154 168 182 196 210 238 252 266 280 294 308 322 336 350 364 378 392 406 420 434 448 462 490 504 518 532 546 560 574 588 602 616 630 644 672 686 714 728 </domain>
      <domain for="fe[26]"> 14 28 42 56 70 84 98 112 126 140 168 182 196 210 224 238 252 266 280 294 308 322 336 350 364 378 392 406 420 434 448 462 476 490 504 518 532 546 560 574 588 602 616 630 644 658 672 686 700 714 728 </domain>
      <domain for="fe[27]"> 14 28 42 56 70 84 98 112 126 154 168 182 196 210 224 238 252 266 280 294 308 322 336 350 364 392 406 462 476 490 504 518 546 574 588 602 616 630 644 658 672 686 700 714 </domain>
      <domain for="fe[28]"> 14 28 42 56 70 84 98 112 126 140 154 168 182 196 210 224 238 252 266 280 294 308 322 336 350 364 378 392 406 420 434 448 462 476 490 518 532 546 560 574 588 602 616 630 644 658 672 686 700 714 728 </domain>
      <domain for="fe[29] fe[44]"> 14 28 42 56 70 98 112 126 140 154 168 182 196 210 224 238 252 266 280 294 308 322 336 350 364 378 392 406 420 434 448 462 476 490 504 518 532 546 560 574 588 602 616 630 644 658 672 686 700 714 728 </domain>
      <domain for="fe[30]"> 14 28 42 56 70 84 98 112 140 154 168 182 196 210 224 238 266 280 294 308 322 336 350 364 378 406 420 434 448 462 476 490 504 518 532 546 560 574 602 616 630 644 658 672 686 700 714 728 </domain>
      <domain for="fe[31]"> 28 42 56 70 84 98 112 126 140 154 168 182 196 238 252 266 294 308 336 350 364 378 392 406 420 434 448 462 476 490 504 518 532 546 560 574 588 602 616 630 644 658 672 686 700 728 </domain>
      <domain for="fe[32]"> 14 28 42 56 70 98 112 126 140 154 168 182 196 210 252 266 280 294 308 336 350 364 378 392 406 434 462 476 490 504 518 532 546 560 574 588 616 630 658 672 686 700 714 728 </domain>
      <domain for="fe[33]"> 14 28 42 56 70 84 98 112 126 140 154 168 182 196 210 224 238 252 266 280 308 322 336 350 364 392 406 420 434 448 462 476 490 504 518 532 546 560 588 602 616 630 644 658 672 686 700 714 728 </domain>
      <domain for="fe[35]"> 14 28 42 56 84 98 112 126 140 154 168 238 252 266 280 294 322 336 364 378 392 406 434 448 462 476 504 532 560 588 602 616 630 644 658 672 686 700 714 728 </domain>
      <domain for="fe[36]"> 28 42 70 84 98 112 126 140 154 168 182 196 210 224 238 266 280 294 308 322 336 350 364 378 392 406 434 448 462 476 490 504 518 532 546 560 588 616 630 644 658 672 686 700 714 728 </domain>
      <domain for="fe[37]"> 14 56 84 98 112 126 140 154 168 182 196 224 238 252 266 280 294 308 322 336 364 378 392 406 420 434 448 462 476 490 504 532 546 560 574 588 602 616 644 658 672 686 700 714 728 </domain>
      <domain for="fe[38]"> 14 28 56 70 84 112 126 140 154 168 210 224 238 266 294 308 322 336 350 406 420 434 448 462 490 504 518 532 560 574 588 616 630 644 658 672 686 700 714 728 </domain>
      <domain for="fe[39]"> 14 28 42 56 84 112 126 140 154 196 210 224 238 252 266 294 322 336 350 364 392 406 420 434 448 462 476 490 504 532 546 560 574 602 616 658 686 700 714 728 </domain>
      <domain for="fe[41]"> 14 28 56 70 84 98 112 126 140 154 168 182 196 210 224 238 252 266 280 294 308 336 350 378 392 406 420 434 448 462 504 518 532 546 560 602 616 644 658 672 686 714 728 </domain>
      <domain for="fe[42]"> 14 28 42 84 98 112 126 168 182 196 210 224 252 266 280 294 308 322 350 364 392 434 448 462 476 490 504 518 532 546 560 574 588 616 630 658 672 686 700 728 </domain>
      <domain for="fe[43]"> 14 28 42 56 70 84 98 112 126 140 168 182 196 210 224 238 280 294 308 322 336 378 406 420 434 448 462 476 490 504 532 546 560 574 588 602 616 630 644 658 686 700 714 728 </domain>
      <domain for="fe[45]"> 14 28 42 56 84 98 112 126 154 210 224 238 252 266 294 322 336 350 364 378 392 420 434 448 462 476 490 504 518 532 546 560 588 602 616 630 644 658 672 686 700 714 </domain>
      <domain for="fe[46]"> 84 98 112 126 140 154 168 182 196 210 238 252 266 280 294 308 322 336 364 378 392 406 420 434 462 476 490 504 518 532 546 560 574 588 602 616 630 644 658 672 686 700 714 728 </domain>
      <domain for="fe[47]"> 28 42 56 70 84 98 112 140 154 168 182 210 224 252 266 294 308 322 336 350 364 378 392 406 420 434 462 490 504 518 532 546 560 574 588 602 616 630 644 658 672 686 700 714 728 </domain>
      <domain for="fe[48]"> 14 28 42 56 84 98 112 126 140 154 182 196 210 252 266 280 294 308 322 336 350 364 378 392 406 434 448 462 476 490 504 518 532 546 560 588 602 616 630 672 700 714 </domain>
      <domain for="fe[49]"> 14 28 42 56 70 84 98 112 140 154 168 182 210 224 266 280 308 322 336 350 364 378 392 406 420 434 448 462 476 490 518 532 560 574 588 602 616 630 644 658 672 686 714 728 </domain>
    </array>
    <array id="fr" size="[50]">
      <domain for="fr[0]"> 14 28 56 70 84 98 112 126 140 154 168 182 196 224 238 280 294 308 322 350 364 378 392 406 420 434 462 490 504 518 546 560 574 588 602 616 630 658 686 728 </domain>
      <domain for="fr[1]"> 14 28 42 56 70 98 126 168 182 196 210 224 238 252 266 294 308 322 336 364 378 392 406 420 434 448 462 490 504 518 532 560 574 602 616 630 658 672 686 700 714 728 </domain>
      <domain for="fr[2]"> 14 28 42 56 70 84 98 126 140 154 168 182 210 238 252 266 280 294 308 364 378 392 420 434 448 462 476 490 504 518 532 546 588 602 616 630 672 686 700 714 728 </domain>
      <domain for="fr[3]"> 14 28 42 56 70 84 112 126 140 154 168 182 196 210 224 238 252 266 280 294 322 336 350 364 378 392 406 420 434 448 462 476 490 504 518 532 546 560 574 588 602 616 630 644 658 672 686 700 714 728 </domain>
      <domain for="fr[4]"> 28 42 56 70 98 112 126 140 154 168 182 196 210 224 238 266 280 294 308 322 350 364 420 434 462 476 504 518 532 546 560 574 588 602 616 644 658 686 700 728 </domain>
      <domain for="fr[5]"> 14 28 42 56 70 84 98 112 126 140 154 168 182 196 210 224 238 252 266 280 308 322 336 350 378 392 406 420 434 448 462 476 490 504 546 560 574 588 616 630 644 658 672 686 700 728 </domain>
      <domain for="fr[6]"> 14 28 56 70 84 98 112 126 140 154 168 182 196 210 224 238 252 266 280 308 322 336 350 364 378 406 420 434 448 462 476 490 504 518 532 560 588 602 616 630 644 658 672 700 728 </domain>
      <domain for="fr[7]"> 14 28 42 56 70 84 126 140 154 168 182 196 224 252 266 280 294 308 350 364 378 392 406 420 434 448 462 476 490 504 518 532 546 560 588 602 616 630 644 658 686 700 714 728 </domain>
      <domain for="fr[8]"> 14 28 42 56 70 84 98 112 126 140 154 168 182 210 238 252 266 280 294 308 322 336 350 378 392 406 420 434 448 462 476 490 504 518 532 560 574 588 630 644 658 672 700 714 728 </domain>
      <domain for="fr[9]"> 28 42 70 84 98 112 126 140 154 168 182 196 210 224 238 252 280 294 308 322 350 364 392 406 420 434 448 462 476 490 504 518 532 546 560 574 588 602 616 630 644 658 672 686 700 714 728 </domain>
      <domain for="fr[10]"> 14 42 56 70 84 98 112 126 140 154 168 182 196 210 224 238 252 266 280 294 322 336 364 378 392 406 420 434 448 462 490 504 546 560 574 588 602 616 630 644 658 672 686 714 728 </domain>
      <domain for="fr[11]"> 14 28 42 56 70 84 112 126 140 168 182 210 238 252 280 294 308 322 336 350 364 378 406 420 434 448 490 518 532 546 574 588 602 616 630 658 672 686 700 714 </domain>
      <domain for="fr[12]"> 14 28 56 84 98 112 126 154 168 182 196 210 224 238 252 266 294 308 322 336 350 364 378 392 406 420 434 448 462 476 504 518 532 546 588 616 630 644 658 672 686 700 714 728 </domain>
      <domain for="fr[13]"> 14 42 56 70 84 98 112 126 140 168 182 196 210 224 238 252 266 280 308 322 336 350 364 378 392 406 420 448 462 476 490 504 518 532 546 560 574 588 602 616 630 658 672 700 728 </domain>
      <domain for="fr[14]"> 14 28 56 70 84 98 112 126 140 154 168 182 196 224 238 266 280 308 322 336 350 364 378 392 406 420 434 448 462 476 490 504 518 532 546 560 574 588 602 630 644 658 672 686 700 714 728 </domain>
      <domain for="fr[15]"> 14 28 56 84 98 112 126 140 154 168 182 224 238 252 266 280 294 308 364 378 392 406 420 434 448 462 476 490 532 546 560 574 588 616 630 644 658 672 686 700 728 </domain>
      <domain for="fr[16]"> 14 28 42 56 84 98 112 126 140 154 168 182 196 210 238 252 266 280 308 322 336 350 364 392 420 434 448 462 476 490 518 532 546 602 616 630 672 686 714 728 </domain>
      <domain for="fr[17]"> 14 28 42 56 70 84 98 112 126 140 154 168 182 196 210 224 252 294 308 322 350 378 392 406 420 434 448 490 532 546 560 588 602 616 630 644 658 672 686 700 714 728 </domain>
      <domain for="fr[18]"> 14 42 56 98 112 126 140 154 168 182 196 210 224 238 252 280 294 308 322 336 350 364 378 392 406 420 434 448 462 476 490 504 518 532 546 588 602 616 630 658 672 686 700 728 </domain>
      <domain for="fr[19] fr[45]"> 14 28 42 56 70 84 112 126 140 154 168 182 196 210 224 238 252 266 280 294 308 322 336 350 364 378 392 406 420 434 448 462 476 490 504 518 532 546 560 574 588 602 616 630 644 658 672 686 700 714 728 </domain>
      <domain for="fr[20]"> 14 28 42 56 70 84 98 126 140 168 182 196 210 224 238 252 266 280 308 322 336 350 364 378 392 420 434 448 462 476 490 504 518 546 560 574 588 602 616 630 644 658 672 686 700 714 728 </domain>
      <domain for="fr[21]"> 14 28 42 56 70 84 98 112 126 140 154 168 182 196 210 224 238 266 280 294 308 336 350 364 378 392 406 420 462 476 490 504 518 532 546 560 574 588 602 616 630 644 658 686 700 714 </domain>
      <domain for="fr[22]"> 28 42 56 70 84 98 112 126 140 154 168 182 196 210 224 252 266 280 294 308 322 336 350 364 378 392 406 420 434 448 462 476 490 518 532 546 560 574 588 602 616 630 644 658 672 700 714 728 </domain>
      <domain for="fr[23] fr[39]"> 14 28 42 56 70 84 98 112 126 140 154 168 182 210 224 238 252 266 280 294 308 322 336 350 364 378 392 406 420 434 448 462 476 490 504 518 532 546 560 574 588 602 616 630 644 658 672 686 700 714 728 </domain>
      <domain for="fr[24]"> 14 28 56 70 84 98 112 126 154 196 210 224 238 252 280 294 308 322 336 350 364 378 392 406 434 448 462 476 490 504 518 532 546 560 574 588 602 630 644 658 686 700 714 728 </domain>
      <domain for="fr[25]"> 14 28 42 56 70 84 98 112 126 140 154 168 182 196 210 224 238 252 266 280 294 308 322 336 350 364 378 392 406 420 434 448 462 490 504 518 532 546 560 574 588 602 616 630 644 658 672 686 700 714 728 </domain>
      <domain for="fr[26]"> 14 28 42 56 70 84 98 112 126 140 168 182 196 210 238 252 266 280 294 308 322 336 350 364 378 392 406 420 448 462 476 490 504 518 532 546 560 574 588 602 644 672 686 700 728 </domain>
      <domain for="fr[27]"> 28 42 56 70 84 98 112 140 154 168 182 196 210 224 238 252 266 280 294 308 336 350 364 378 392 406 434 448 462 476 490 504 518 532 546 560 574 588 602 616 630 644 658 686 700 714 728 </domain>
      <domain for="fr[28]"> 14 28 56 70 84 112 126 140 154 168 182 196 224 238 252 266 280 308 322 336 350 364 378 392 420 448 462 476 490 504 532 546 560 574 588 602 616 644 658 672 686 700 728 </domain>
      <domain for="fr[29] fr[47]"> 14 28 42 56 70 84 98 112 126 140 154 168 182 196 210 224 238 252 266 280 294 308 322 336 350 364 378 392 406 420 434 448 462 476 490 504 518 532 546 560 574 588 602 616 630 644 658 672 686 700 714 728 </domain>
      <domain for="fr[30]"> 14 28 42 56 70 84 112 126 140 154 168 182 196 210 224 238 252 266 280 294 308 336 364 378 392 406 420 434 448 462 476 490 504 518 532 560 574 588 602 630 644 658 672 686 700 714 728 </domain>
      <domain for="fr[31]"> 14 42 56 70 84 112 126 140 154 168 182 196 210 224 238 252 294 308 322 350 364 378 392 448 462 476 490 504 518 532 546 574 588 616 630 644 658 686 700 714 </domain>
      <domain for="fr[32]"> 28 42 70 84 98 112 126 154 168 196 210 224 238 266 294 308 322 336 364 378 392 420 434 448 462 476 504 518 532 546 560 588 616 630 644 658 672 686 714 728 </domain>
      <domain for="fr[33]"> 14 28 42 56 70 84 98 112 126 140 154 168 182 196 210 224 238 252 266 280 294 308 322 336 350 378 392 406 434 448 462 476 490 504 518 532 546 560 574 588 602 616 630 644 658 672 686 700 714 728 </domain>
      <domain for="fr[34]"> 14 28 42 56 70 84 98 112 126 140 154 182 196 210 224 238 252 266 280 294 308 322 336 350 364 378 392 406 420 434 448 490 504 532 560 574 588 602 616 630 644 658 672 686 714 728 </domain>
      <domain for="fr[35]"> 14 42 56 70 84 98 112 126 140 154 168 182 210 238 252 266 280 308 336 350 364 378 392 406 420 434 448 462 490 504 532 560 574 588 616 630 644 658 672 686 714 728 </domain>
      <domain for="fr[36]"> 14 28 42 56 70 84 98 112 126 140 154 168 182 196 210 224 238 252 266 280 294 308 322 336 350 364 392 420 434 448 476 490 504 518 532 546 560 574 588 602 616 630 644 658 672 686 700 714 728 </domain>
      <domain for="fr[37]"> 14 28 42 70 84 98 112 126 140 154 168 182 196 210 224 238 252 266 294 336 350 364 378 392 406 420 434 462 476 490 504 518 532 546 560 574 588 602 616 644 658 672 686 700 714 728 </domain>
      <domain for="fr[38]"> 14 28 42 56 70 84 98 112 140 154 168 182 196 210 224 238 252 266 280 294 308 322 336 350 364 378 392 406 420 434 448 462 476 504 518 532 546 560 574 588 602 616 630 644 658 672 686 700 714 728 </domain>
      <domain for="fr[40]"> 14 28 42 56 70 84 98 112 126 140 154 168 182 196 210 224 238 252 266 280 294 308 322 336 350 364 378 392 406 420 434 448 462 476 504 518 532 546 560 574 588 602 616 630 658 672 686 700 714 728 </domain>
      <domain for="fr[41]"> 14 28 42 56 70 84 98 112 140 154 182 196 210 238 252 266 280 294 308 322 336 350 364 378 434 448 462 476 490 504 518 532 546 560 574 588 602 616 630 644 658 672 686 700 714 728 </domain>
      <domain for="fr[42]"> 14 28 42 56 70 84 98 112 126 140 154 168 196 210 238 252 266 280 294 308 322 336 350 364 378 392 406 420 434 448 462 476 490 518 532 546 574 588 616 630 644 658 672 686 700 714 728 </domain>
      <domain for="fr[43]"> 14 28 42 70 98 112 126 140 154 168 182 196 210 224 238 252 280 294 308 336 364 378 392 406 420 434 448 462 476 504 518 532 546 560 588 602 616 630 644 658 672 686 700 714 728 </domain>
      <domain for="fr[44]"> 14 28 56 70 84 112 140 154 168 196 224 238 266 280 294 308 322 336 350 364 378 406 420 434 448 462 490 504 532 546 560 574 588 602 616 630 644 672 686 700 714 728 </domain>
      <domain for="fr[46]"> 14 28 42 56 70 98 112 126 140 154 182 196 224 238 252 266 280 294 308 322 336 350 364 378 392 406 420 434 448 462 476 504 518 532 546 560 574 602 630 658 672 686 700 728 </domain>
      <domain for="fr[48]"> 14 28 42 56 70 84 98 112 126 140 154 168 182 210 224 238 252 266 280 294 308 322 336 350 364 378 392 406 420 434 448 462 476 490 504 518 532 560 574 588 616 630 644 658 672 686 700 714 728 </domain>
      <domain for="fr[49]"> 14 28 42 56 70 98 112 126 140 154 168 210 224 238 252 266 280 294 308 322 336 364 378 392 406 420 434 448 462 476 490 504 518 532 546 560 574 588 602 616 630 644 672 686 700 714 728 </domain>
    </array>
  </variables>
  <constraints>
    <intension> eq(dist(fe[0],fr[0]),266) </intension>
    <intension> eq(dist(fe[1],fr[1]),266) </intension>
    <intension> eq(dist(fe[2],fr[2]),266) </intension>
    <intension> eq(dist(fe[3],fr[3]),266) </intension>
    <intension> eq(dist(fe[4],fr[4]),266) </intension>
    <intension> eq(dist(fe[5],fr[5]),266) </intension>
    <intension> eq(dist(fe[6],fr[6]),266) </intension>
    <intension> eq(dist(fe[7],fr[7]),266) </intension>
    <intension> eq(dist(fe[8],fr[8]),266) </intension>
    <intension> eq(dist(fe[9],fr[9]),266) </intension>
    <intension> eq(dist(fe[10],fr[10]),266) </intension>
    <intension> eq(dist(fe[11],fr[11]),266) </intension>
    <intension> eq(dist(fe[12],fr[12]),266) </intension>
    <intension> eq(dist(fe[13],fr[13]),266) </intension>
    <intension> eq(dist(fe[14],fr[14]),266) </intension>
    <intension> eq(dist(fe[15],fr[15]),266) </intension>
    <intension> eq(dist(fe[16],fr[16]),266) </intension>
    <intension> eq(dist(fe[17],fr[17]),266) </intension>
    <intension> eq(dist(fe[18],fr[18]),266) </intension>
    <intension> eq(dist(fe[19],fr[19]),266) </intension>
    <intension> eq(dist(fe[20],fr[20]),266) </intension>
    <intension> eq(dist(fe[21],fr[21]),266) </intension>
    <intension> eq(dist(fe[22],fr[22]),266) </intension>
    <intension> eq(dist(fe[23],fr[23]),266) </intension>
    <intension> eq(dist(fe[24],fr[24]),266) </intension>
    <intension> eq(dist(fe[25],fr[25]),266) </intension>
    <intension> eq(dist(fe[26],fr[26]),266) </intension>
    <intension> eq(dist(fe[27],fr[27]),266) </intension>
    <intension> eq(dist(fe[28],fr[28]),266) </intension>
    <intension> eq(dist(fe[29],fr[29]),266) </intension>
    <intension> eq(dist(fe[30],fr[30]),266) </intension>
    <intension> eq(dist(fe[31],fr[31]),266) </intension>
    <intension> eq(dist(fe[32],fr[32]),266) </intension>
    <intension> eq(dist(fe[33],fr[33]),266) </intension>
    <intension> eq(dist(fe[34],fr[34]),266) </intension>
    <intension> eq(dist(fe[35],fr[35]),266) </intension>
    <intension> eq(dist(fe[36],fr[36]),266) </intension>
    <intension> eq(dist(fe[37],fr[37]),266) </intension>
    <intension> eq(dist(fe[38],fr[38]),266) </intension>
    <intension> eq(dist(fe[39],fr[39]),266) </intension>
    <intension> eq(dist(fe[40],fr[40]),266) </intension>
    <intension> eq(dist(fe[41],fr[41]),266) </intension>
    <intension> eq(dist(fe[42],fr[42]),266) </intension>
    <intension> eq(dist(fe[43],fr[43]),266) </intension>
    <intension> eq(dist(fe[44],fr[44]),266) </intension>
    <intension> eq(dist(fe[45],fr[45]),266) </intension>
    <intension> eq(dist(fe[46],fr[46]),266) </intension>
    <intension> eq(dist(fe[47],fr[47]),266) </intension>
    <intension> eq(dist(fe[48],fr[48]),266) </intension>
    <intension> eq(dist(fe[49],fr[49]),266) </intension>
    <intension> ge(dist(fe[0],fe[14]),50) </intension>
    <intension> ge(dist(fr[0],fr[14]),50) </intension>
    <intension> ge(dist(fe[0],fe[24]),50) </intension>
    <intension> ge(dist(fr[0],fr[24]),50) </intension>
    <intension> ge(dist(fe[0],fe[26]),20) </intension>
    <intension> ge(dist(fr[0],fr[26]),20) </intension>
    <intension> ge(dist(fe[0],fe[1]),20) </intension>
    <intension> ge(dist(fr[0],fr[1]),20) </intension>
    <intension> ge(dist(fe[1],fe[25]),50) </intension>
    <intension> ge(dist(fr[1],fr[25]),50) </intension>
    <intension> ge(dist(fe[1],fe[24]),30) </intension>
    <intension> ge(dist(fr[1],fr[24]),30) </intension>
    <intension> ge(dist(fe[1],fe[10]),30) </intension>
    <intension> ge(dist(fr[1],fr[10]),30) </intension>
    <intension> ge(dist(fe[1],fe[17]),30) </intension>
    <intension> ge(dist(fr[1],fr[17]),30) </intension>
    <intension> ge(dist(fe[2],fe[33]),20) </intension>
    <intension> ge(dist(fr[2],fr[33]),20) </intension>
    <intension> ge(dist(fe[3],fe[23]),30) </intension>
    <intension> ge(dist(fr[3],fr[23]),30) </intension>
    <intension> ge(dist(fe[3],fe[18]),40) </intension>
    <intension> ge(dist(fr[3],fr[18]),40) </intension>
    <intension> ge(dist(fe[3],fe[42]),30) </intension>
    <intension> ge(dist(fr[3],fr[42]),30) </intension>
    <intension> ge(dist(fe[3],fe[12]),40) </intension>
    <intension> ge(dist(fr[3],fr[12]),40) </intension>
    <intension> ge(dist(fe[4],fe[18]),40) </intension>
    <intension> ge(dist(fr[4],fr[18]),40) </intension>
    <intension> ge(dist(fe[4],fe[5]),40) </intension>
    <intension> ge(dist(fr[4],fr[5]),40) </intension>
    <intension> ge(dist(fe[6],fe[29]),30) </intension>
    <intension> ge(dist(fr[6],fr[29]),30) </intension>
    <intension> ge(dist(fe[6],fe[27]),50) </intension>
    <intension> ge(dist(fr[6],fr[27]),50) </intension>
    <intension> ge(dist(fe[7],fe[23]),50) </intension>
    <intension> ge(dist(fr[7],fr[23]),50) </intension>
    <intension> ge(dist(fe[7],fe[35]),40) </intension>
    <intension> ge(dist(fr[7],fr[35]),40) </intension>
    <intension> ge(dist(fe[7],fe[39]),20) </intension>
    <intension> ge(dist(fr[7],fr[39]),20) </intension>
    <intension> ge(dist(fe[7],fe[12]),20) </intension>
    <intension> ge(dist(fr[7],fr[12]),20) </intension>
    <intension> ge(dist(fe[8],fe[35]),40) </intension>
    <intension> ge(dist(fr[8],fr[35]),40) </intension>
    <intension> ge(dist(fe[9],fe[47]),20) </intension>
    <intension> ge(dist(fr[9],fr[47]),20) </intension>
    <intension> ge(dist(fe[10],fe[37]),40) </intension>
    <intension> ge(dist(fr[10],fr[37]),40) </intension>
    <intension> ge(dist(fe[11],fe[26]),20) </intension>
    <intension> ge(dist(fr[11],fr[26]),20) </intension>
    <intension> ge(dist(fe[11],fe[44]),40) </intension>
    <intension> ge(dist(fr[11],fr[44]),40) </intension>
    <intension> ge(dist(fe[12],fe[20]),40) </intension>
    <intension> ge(dist(fr[12],fr[20]),40) </intension>
    <intension> ge(dist(fe[12],fe[48]),20) </intension>
    <intension> ge(dist(fr[12],fr[48]),20) </intension>
    <intension> ge(dist(fe[12],fe[30]),40) </intension>
    <intension> ge(dist(fr[12],fr[30]),40) </intension>
    <intension> ge(dist(fe[12],fe[15]),40) </intension>
    <intension> ge(dist(fr[12],fr[15]),40) </intension>
    <intension> ge(dist(fe[13],fe[39]),50) </intension>
    <intension> ge(dist(fr[13],fr[39]),50) </intension>
    <intension> ge(dist(fe[14],fe[29]),30) </intension>
    <intension> ge(dist(fr[14],fr[29]),30) </intension>
    <intension> ge(dist(fe[14],fe[24]),40) </intension>
    <intension> ge(dist(fr[14],fr[24]),40) </intension>
    <intension> ge(dist(fe[18],fe[36]),30) </intension>
    <intension> ge(dist(fr[18],fr[36]),30) </intension>
    <intension> ge(dist(fe[19],fe[23]),20) </intension>
    <intension> ge(dist(fr[19],fr[23]),20) </intension>
    <intension> ge(dist(fe[21],fe[29]),50) </intension>
    <intension> ge(dist(fr[21],fr[29]),50) </intension>
    <intension> ge(dist(fe[22],fe[40]),40) </intension>
    <intension> ge(dist(fr[22],fr[40]),40) </intension>
    <intension> ge(dist(fe[22],fe[43]),20) </intension>
    <intension> ge(dist(fr[22],fr[43]),20) </intension>
    <intension> ge(dist(fe[22],fe[45]),30) </intension>
    <intension> ge(dist(fr[22],fr[45]),30) </intension>
    <intension> ge(dist(fe[22],fe[49]),30) </intension>
    <intension> ge(dist(fr[22],fr[49]),30) </intension>
    <intension> ge(dist(fe[23],fe[40]),30) </intension>
    <intension> ge(dist(fr[23],fr[40]),30) </intension>
    <intension> ge(dist(fe[23],fe[37]),50) </intension>
    <intension> ge(dist(fr[23],fr[37]),50) </intension>
    <intension> ge(dist(fe[23],fe[32]),40) </intension>
    <intension> ge(dist(fr[23],fr[32]),40) </intension>
    <intension> ge(dist(fe[24],fe[25]),40) </intension>
    <intension> ge(dist(fr[24],fr[25]),40) </intension>
    <intension> ge(dist(fe[25],fe[41]),20) </intension>
    <intension> ge(dist(fr[25],fr[41]),20) </intension>
    <intension> ge(dist(fe[26],fe[38]),50) </intension>
    <intension> ge(dist(fr[26],fr[38]),50) </intension>
    <intension> ge(dist(fe[28],fe[41]),30) </intension>
    <intension> ge(dist(fr[28],fr[41]),30) </intension>
    <intension> ge(dist(fe[31],fe[40]),30) </intension>
    <intension> ge(dist(fr[31],fr[40]),30) </intension>
    <intension> ge(dist(fe[31],fe[43]),30) </intension>
    <intension> ge(dist(fr[31],fr[43]),30) </intension>
    <intension> ge(dist(fe[31],fe[33]),30) </intension>
    <intension> ge(dist(fr[31],fr[33]),30) </intension>
    <intension> ge(dist(fe[33],fe[46]),40) </intension>
    <intension> ge(dist(fr[33],fr[46]),40) </intension>
    <intension> ge(dist(fe[34],fe[38]),50) </intension>
    <intension> ge(dist(fr[34],fr[38]),50) </intension>
    <intension> ge(dist(fe[34],fe[45]),30) </intension>
    <intension> ge(dist(fr[34],fr[45]),30) </intension>
    <intension> ge(dist(fe[35],fe[42]),40) </intension>
    <intension> ge(dist(fr[35],fr[42]),40) </intension>
    <intension> ge(dist(fe[35],fe[36]),30) </intension>
    <intension> ge(dist(fr[35],fr[36]),30) </intension>
    <intension> ge(dist(fe[38],fe[44]),50) </intension>
    <intension> ge(dist(fr[38],fr[44]),50) </intension>
    <nValues>
      <list> fe[8..9] fe[12] fe[15] fe[30] fe[35..36] fe[47] fr[8..9] fr[12] fr[15] fr[30] fr[35..36] fr[47] </list>
      <condition> (le,16) </condition>
    </nValues>
    <nValues>
      <list> fe[3..5] fe[18..20] fe[42] fr[3..5] fr[18..20] fr[42] </list>
      <condition> (le,12) </condition>
    </nValues>
    <nValues>
      <list> fe[0] fe[11] fe[21] fe[24] fe[26] fe[34] fe[38] fe[44..45] fr[0] fr[11] fr[21] fr[24] fr[26] fr[34] fr[38] fr[44..45] </list>
      <condition> (le,17) </condition>
    </nValues>
    <nValues>
      <list> fe[2] fe[10] fe[17] fe[22] fe[32..33] fe[37] fe[46] fe[49] fr[2] fr[10] fr[17] fr[22] fr[32..33] fr[37] fr[46] fr[49] </list>
      <condition> (le,17) </condition>
    </nValues>
    <nValues>
      <list> fe[7] fe[13] fe[16] fe[39] fe[48] fr[7] fr[13] fr[16] fr[39] fr[48] </list>
      <condition> (le,8) </condition>
    </nValues>
    <nValues>
      <list> fe[23] fe[31] fe[40] fe[43] fr[23] fr[31] fr[40] fr[43] </list>
      <condition> (le,6) </condition>
    </nValues>
    <nValues>
      <list> fe[1] fe[6] fe[14] fe[25] fe[27..29] fe[41] fr[1] fr[6] fr[14] fr[25] fr[27..29] fr[41] </list>
      <condition> (le,14) </condition>
    </nValues>
  </constraints>
  <objectives>
    <minimize type="nValues"> fe[] fr[] </minimize>
  </objectives>
</instance>
